100 100 100
50
94 85 27
11 84 96
36 10 34
72 76 26
64 73 56
81 77 2
30 23 17
46 27 47
67 69 37
69 71 18
88 69 64
47 95 99
20 95 93
23 8 32
67 73 55
69 46 95
67 80 40
70 87 36
90 100 36
45 100 84
90 99 12
93 93 38
82 43 95
98 38 97
69 90 72
66 90 25
81 78 48
37 10 21
84 17 69
97 96 24
74 72 39
84 77 38
51 97 51
38 74 95
23 42 26
72 86 64
6 86 67
86 25 88
5 74 88
92 90 10
92 82 35
24 80 93
99 95 29
66 77 86
47 82 77
92 76 6
93 70 19
92 80 39
96 93 17
88 71 1
